# Solution for model r5_t9_m6_8 Batch Number: 2
# Finished Task: 7 / 9
# Makespan: 546.0, Total Distance: 138.0, Total Time: 0.5023
# R O S F Batch
0 0 7 0.0 0.0 -1
1 1 12 0.0 0.0 -1
2 2 -1 0.0 0.0 -1
3 3 5 0.0 0.0 -1
4 4 -1 0.0 0.0 -1
5 3 8 373.0 394.0 0
6 -1 -1 -1.0 -1.0 1
7 0 13 338.0 373.0 0
8 3 -1 432.0 461.0 0
9 0 -1 461.0 495.0 1
10 -1 -1 -1.0 -1.0 1
11 1 -1 515.0 546.0 1
12 1 11 461.0 487.0 0
13 0 9 386.0 423.0 0
